
Gurobi 12.0.3 (win64, gurobi_cl) logging started Wed Nov 12 16:50:36 2025

Set parameter Username
Set parameter LogFile to value "gurobi.log"
Using license file C:\Users\engs2859\gurobi.lic
Academic license - for non-commercial use only - expires 2026-08-19

Gurobi 12.0.3 (win64, gurobi_cl) logging started Thu Nov 13 11:57:10 2025

Set parameter Username
Set parameter LogFile to value "gurobi.log"
Using license file C:\Users\engs2859\gurobi.lic
Academic license - for non-commercial use only - expires 2026-08-19

Gurobi 12.0.3 (win64, gurobi_cl) logging started Thu Nov 13 12:14:48 2025

Set parameter Username
Set parameter LogFile to value "gurobi.log"
Using license file C:\Users\engs2859\gurobi.lic
Academic license - for non-commercial use only - expires 2026-08-19

Gurobi 12.0.3 (win64, gurobi_cl) logging started Thu Nov 13 14:44:29 2025

Set parameter Username
Set parameter LogFile to value "gurobi.log"
Using license file C:\Users\engs2859\gurobi.lic
Academic license - for non-commercial use only - expires 2026-08-19

Gurobi 12.0.3 (win64, gurobi_cl) logging started Thu Nov 13 14:57:42 2025

Set parameter Username
Set parameter LogFile to value "gurobi.log"
Using license file C:\Users\engs2859\gurobi.lic
Academic license - for non-commercial use only - expires 2026-08-19

Gurobi 12.0.3 (win64, gurobi_cl) logging started Thu Nov 13 15:04:23 2025

Set parameter Username
Set parameter LogFile to value "gurobi.log"
Using license file C:\Users\engs2859\gurobi.lic
Academic license - for non-commercial use only - expires 2026-08-19

Gurobi 12.0.3 (win64, gurobi_cl) logging started Thu Nov 13 15:38:52 2025

Set parameter Username
Set parameter LogFile to value "gurobi.log"
Using license file C:\Users\engs2859\gurobi.lic
Academic license - for non-commercial use only - expires 2026-08-19

Gurobi 12.0.3 (win64, gurobi_cl) logging started Thu Nov 13 15:43:04 2025

Set parameter Username
Set parameter LogFile to value "gurobi.log"
Using license file C:\Users\engs2859\gurobi.lic
Academic license - for non-commercial use only - expires 2026-08-19

Gurobi 12.0.3 (win64, gurobi_cl) logging started Thu Nov 13 16:01:21 2025

Set parameter Username
Set parameter LogFile to value "gurobi.log"
Using license file C:\Users\engs2859\gurobi.lic
Academic license - for non-commercial use only - expires 2026-08-19

Gurobi 12.0.3 (win64, gurobi_cl) logging started Thu Nov 13 16:02:27 2025

Set parameter Username
Set parameter LogFile to value "gurobi.log"
Using license file C:\Users\engs2859\gurobi.lic
Academic license - for non-commercial use only - expires 2026-08-19

Gurobi 12.0.3 (win64, gurobi_cl) logging started Thu Nov 13 22:38:05 2025

Set parameter Username
Set parameter LogFile to value "gurobi.log"
Using license file C:\Users\engs2859\gurobi.lic
Academic license - for non-commercial use only - expires 2026-08-19

Gurobi 12.0.3 (win64, gurobi_cl) logging started Fri Nov 14 09:52:57 2025

Set parameter Username
Set parameter LogFile to value "gurobi.log"
Using license file C:\Users\engs2859\gurobi.lic
Academic license - for non-commercial use only - expires 2026-08-19

Gurobi 12.0.3 (win64, gurobi_cl) logging started Fri Nov 14 10:48:51 2025

Set parameter Username
Set parameter LogFile to value "gurobi.log"
Using license file C:\Users\engs2859\gurobi.lic
Academic license - for non-commercial use only - expires 2026-08-19

Gurobi 12.0.3 (win64, gurobi_cl) logging started Fri Nov 14 10:49:21 2025

Set parameter Username
Set parameter LogFile to value "gurobi.log"
Using license file C:\Users\engs2859\gurobi.lic
Academic license - for non-commercial use only - expires 2026-08-19

Gurobi 12.0.3 (win64, gurobi_cl) logging started Fri Nov 14 14:54:00 2025

Set parameter Username
Set parameter LogFile to value "gurobi.log"
Using license file C:\Users\engs2859\gurobi.lic
Academic license - for non-commercial use only - expires 2026-08-19

Gurobi 12.0.3 (win64, gurobi_cl) logging started Fri Nov 14 15:53:45 2025

Set parameter Username
Set parameter LogFile to value "gurobi.log"
Using license file C:\Users\engs2859\gurobi.lic
Academic license - for non-commercial use only - expires 2026-08-19

Gurobi 12.0.3 (win64, gurobi_cl) logging started Sun Nov 16 23:18:27 2025

Set parameter Username
Set parameter LogFile to value "gurobi.log"
Using license file C:\Users\engs2859\gurobi.lic
Academic license - for non-commercial use only - expires 2026-08-19
